11 27
1 2 0
1 3 0
1 4 0
1 5 0
1 6 0
1 7 1
1 8 1
1 9 0
1 10 1
1 11 0
2 3 0
2 4 0
2 5 1
2 6 1
2 7 0
2 8 1
2 9 0
2 10 1
2 11 0
3 4 1
3 5 0
3 6 0
3 7 0
3 8 1
3 9 1
3 10 0
3 11 1
4 5 1
4 6 0
4 7 1
4 8 0
4 9 1
4 10 1
4 11 1
5 6 0
5 7 1
5 8 0
5 9 1
5 10 1
5 11 0
6 7 1
6 8 0
6 9 0
6 10 0
6 11 1
7 8 0
7 9 0
7 10 0
7 11 1
8 9 0
8 10 1
8 11 1
9 10 1
9 11 1
10 11 1
